WARNING: for repeatability, setting FPU to use double precision
============================[ Problem Statistics ]=============================
|                                                                             |
|  Number of variables:         46824                                         |
|  Number of clauses:          130133                                         |
|  Parse time:                   0.04 s                                       |
branch_file: └¦K
|  Eliminated clauses:           0.40 Mb                                      |
|  Simplification time:          0.05 s                                       |
|                                                                             |
============================[ Search Statistics ]==============================
| Conflicts |          ORIGINAL         |          LEARNT          | Progress |
|           |    Vars  Clauses Literals |    Limit  Clauses Lit/Cl |          |
===============================================================================
===============================================================================
restarts              : 1
conflicts             : 2              (22 /sec)
decisions             : 2              (0.00 % random) (22 /sec)
propagations          : 31424          (352738 /sec)
conflict literals     : 1              (0.00 % deleted)
Memory used           : 21.04 MB
CPU time              : 0.089086 s

UNSATISFIABLE
